c generated by generate.py on 2024-12-25 09:33:57
c negative instance
p edge 65 180
e 1 4
e 1 16
e 1 47
e 1 49
e 2 11
e 2 15
e 2 18
e 2 19
e 2 26
e 2 50
e 3 7
e 3 19
e 3 20
e 3 27
e 3 33
e 3 47
e 4 28
e 4 60
e 5 6
e 5 7
e 5 16
e 5 21
e 6 17
e 6 21
e 6 40
e 6 48
e 6 61
e 7 10
e 7 17
e 7 27
e 8 19
e 8 28
e 8 41
e 8 42
e 8 46
e 8 51
e 9 24
e 9 27
e 9 32
e 9 36
e 9 59
e 9 64
e 10 31
e 10 43
e 10 57
e 11 27
e 11 64
e 12 13
e 12 17
e 12 25
e 12 34
e 12 54
e 12 56
e 12 57
e 12 62
e 13 21
e 13 22
e 13 25
e 13 29
e 13 41
e 13 53
e 14 28
e 14 40
e 14 41
e 14 54
e 15 33
e 15 60
e 15 63
e 16 28
e 16 42
e 16 60
e 17 20
e 17 23
e 17 37
e 17 40
e 17 46
e 17 63
e 18 20
e 18 24
e 18 40
e 18 65
e 19 26
e 19 52
e 19 63
e 20 27
e 20 46
e 20 57
e 21 37
e 21 49
e 21 62
e 22 33
e 22 43
e 22 50
e 22 53
e 23 32
e 23 37
e 23 44
e 23 50
e 23 51
e 23 52
e 24 31
e 24 42
e 24 51
e 24 52
e 25 48
e 25 49
e 25 63
e 26 27
e 26 33
e 26 42
e 26 56
e 27 38
e 27 55
e 27 63
e 28 43
e 28 51
e 28 59
e 29 39
e 29 41
e 29 44
e 29 45
e 29 48
e 29 51
e 29 53
e 29 56
e 30 31
e 30 32
e 30 46
e 30 54
e 31 36
e 31 49
e 33 42
e 33 49
e 33 51
e 34 37
e 34 51
e 34 57
e 34 63
e 36 54
e 36 57
e 37 61
e 38 42
e 38 49
e 38 50
e 38 63
e 39 43
e 39 62
e 40 41
e 40 42
e 40 45
e 40 54
e 41 47
e 41 48
e 41 59
e 42 43
e 42 63
e 43 54
e 43 63
e 44 46
e 44 47
e 44 53
e 44 63
e 45 46
e 45 58
e 47 58
e 47 60
e 47 65
e 48 54
e 51 52
e 51 54
e 53 55
e 53 61
e 53 65
e 54 56
e 54 57
e 54 63
e 56 61
e 57 59
e 60 62
e 62 63
